Minimize
  obj: x0 + x1 + x2 + x3 + x4 + x5 + x6 + x7 + x8 + x9 + x10 + x11 + x12

Subject To
  c0: x0 + x3 + x4 + x5 + x6 + x8 + x9 + x12 = 198
  c1: x5 + x6 + x7 + x8 + x10 + x11 = 73
  c2: x2 + x5 + x8 + x9 + x10 + x11 = 190
  c3: x4 + x5 + x6 + x7 + x8 + x10 + x12 = 70
  c4: x0 + x1 + x4 + x5 + x7 + x8 + x11 = 68
  c5: x0 + x1 + x5 + x7 + x10 + x12 = 45
  c6: x0 + x1 + x2 + x5 + x8 + x10 + x12 = 71
  c7: x0 + x7 + x8 + x9 + x10 = 166
  c8: x4 + x7 + x11 = 24
  c9: x0 + x2 + x6 + x7 + x8 + x12 = 75

Bounds
  x0 >= 0
  x1 >= 0
  x2 >= 0
  x3 >= 0
  x4 >= 0
  x5 >= 0
  x6 >= 0
  x7 >= 0
  x8 >= 0
  x9 >= 0
  x10 >= 0
  x11 >= 0
  x12 >= 0

Generals
  x0 x1 x2 x3 x4 x5 x6 x7 x8 x9 x10 x11 x12

End
